p cnf 7230 16
-4564 -4578 -5110 0
-4562 -4576 -5108 0
4564 -5111 0
4562 -5109 0
5112 5113 0
4566 -5113 0
-4566 -5112 0
5110 5111 0
5108 5109 0
5106 5107 0
4560 -5107 0
-4560 -5106 0
4578 -5111 0
4576 -5109 0
4568 -5115 0
5104 5105 0
